58521 58028
22457 62945
47723 44168
13847 4260
47071 45937
60216 19452
14445 58526
13779 10591
30438 33609
40639 32779
36629 53413
46927 10573
22351 31582
28766 14348
25364 60606
11429 30994
56564 31735
3539 1062
53859 49014
57248 23183
5043 19615
50994 1218
31900 26598
17694 23545
55649 49605
54708 31570
49683 21310
23616 40085
23094 36948
35185 52774
36142 45339
61817 18963
58861 15381
48362 48302
48405 62566
14776 62311
40925 36402
22739 64303
54254 50380
58120 61165
17853 63563
54617 61962
38819 35370
10289 22045
26390 59487
64829 46849
33873 54053
22972 53138
37815 61045
8139 13814
41452 27837
59849 63850
20471 26675
16695 51108
47725 56331
43200 28349
43800 42810
12966 16220
17026 29706
45825 48479
19301 3918
61633 25860
59161 39600
26179 52913
11297 58344
63066 33776
17942 52691
50726 63851
18103 41941
57949 22755
12270 54614
57755 62241
43532 38089
60087 57516
5195 60989
45454 50913
61706 33810
44263 2067
8304 26882
5576 32395
